networks/zoo_20_9/zoo_20_9-lower.sol
<?xml version = "1.0" encoding="UTF-8" standalone="yes"?>
<CPLEXSolution version="1.2">
 <header
   problemName="networks/zoo_20_9/zoo_20_9-lower.lp"
   solutionName="incumbent"
   solutionIndex="-1"
   objectiveValue="5"
   solutionTypeValue="3"
   solutionTypeString="primal"
   solutionStatusValue="101"
   solutionStatusString="integer optimal solution"
   solutionMethodString="mip"
   primalFeasible="1"
   dualFeasible="1"
   MIPNodes="0"
   MIPIterations="0"
   writeLevel="3"/>
 <quality
   epInt="1.0000000000000001e-05"
   epRHS="9.9999999999999995e-07"
   maxIntInfeas="0"
   maxPrimalInfeas="0"
   maxX="1"
   maxSlack="1"/>
 <variables>
  <variable name="Y(1,4)" index="2" value="1"/>
  <variable name="Y(3,2)" index="20" value="1"/>
  <variable name="Y(4,3)" index="31" value="1"/>
  <variable name="Y(5,5)" index="43" value="1"/>
  <variable name="Y(6,7)" index="54" value="1"/>
  <variable name="X(2,4,1)" index="90" value="1"/>
  <variable name="X(2,15,3)" index="101" value="1"/>
  <variable name="X(3,4,2)" index="109" value="1"/>
  <variable name="X(3,16,4)" index="120" value="1"/>
  <variable name="X(4,2,3)" index="128" value="1"/>
  <variable name="X(4,3,4)" index="138" value="1"/>
  <variable name="X(4,5,5)" index="148" value="1"/>
  <variable name="X(4,7,6)" index="158" value="1"/>
  <variable name="X(4,17,1)" index="162" value="1"/>
  <variable name="X(5,4,7)" index="177" value="1"/>
  <variable name="X(5,18,5)" index="184" value="1"/>
  <variable name="X(7,4,9)" index="197" value="1"/>
  <variable name="X(7,20,6)" index="203" value="1"/>
 </variables>
</CPLEXSolution>
